xclingo version 2.0b16
Reading from /bin/text2ALM/Master/LogicPrograms/countingA/countingANarrative4.tp.lp /usr/bin/text2ALM/query4.lp trace-rule.lp
*** ERROR: (xclingo, explainer program) too many messages.
